424 5
10 10 10 10 10 

0 0 0 0 0 0 5 2 14 26 38 50 
0 0 0 0 0 0 2 3 4 
6 0 1 0 0 0 3 6 5 353 
2 0 8 0 0 0 2 12 6 
5 0 7 0 0 0 2 12 7 
9 0 4 0 0 0 1 7 
5 0 5 0 0 0 1 8 
4 0 5 0 0 0 1 9 
4 0 8 0 0 0 1 10 
8 0 4 0 0 0 1 11 
9 0 5 0 0 0 1 13 
10 0 3 0 0 0 1 13 
0 0 0 0 0 0 1 62 
0 0 0 0 0 0 1 15 
10 2 0 0 0 0 2 16 331 
4 5 0 0 0 0 1 17 
10 4 0 0 0 0 2 21 18 
3 6 0 0 0 0 2 24 19 
3 6 0 0 0 0 1 20 
5 4 0 0 0 0 2 23 22 
6 5 0 0 0 0 1 22 
3 3 0 0 0 0 1 25 
2 5 0 0 0 0 1 25 
8 10 0 0 0 0 1 25 
0 0 0 0 0 0 1 62 
0 0 0 0 0 0 2 27 28 
1 1 0 0 0 0 1 29 
1 3 0 0 0 0 2 29 69 
6 6 0 0 0 0 1 30 
1 6 0 0 0 0 2 34 31 
6 1 0 0 0 0 1 32 
3 7 0 0 0 0 2 36 33 
3 2 0 0 0 0 1 35 
4 6 0 0 0 0 1 35 
9 10 0 0 0 0 1 37 
9 8 0 0 0 0 1 37 
0 0 0 0 0 0 1 62 
0 0 0 0 0 0 4 39 40 48 120 
10 0 0 0 0 1 2 43 41 
10 0 0 0 0 8 1 41 
3 0 0 0 0 1 1 42 
9 0 0 0 0 4 1 44 
1 0 0 0 0 7 1 44 
9 0 0 0 0 4 1 45 
8 0 0 0 0 6 1 46 
6 0 0 0 0 3 1 47 
9 0 0 0 0 10 1 49 
1 0 0 0 0 6 1 49 
0 0 0 0 0 0 1 62 
0 0 0 0 0 0 2 51 53 
8 0 0 0 2 0 1 52 
3 0 0 0 3 0 1 54 
8 0 0 0 5 0 2 54 410 
6 0 0 0 5 0 1 55 
9 0 0 0 2 0 2 58 56 
8 0 0 0 3 0 2 59 57 
5 0 0 0 10 0 1 60 
1 0 0 0 8 0 1 59 
6 0 0 0 5 0 1 61 
1 0 0 0 7 0 1 61 
0 0 0 0 0 0 1 62 
0 0 0 0 0 0 5 63 75 87 99 111 
0 0 0 0 0 0 2 64 67 
10 0 0 0 1 0 2 68 65 
10 0 0 0 4 0 1 66 
3 0 0 0 9 0 2 72 69 
5 0 0 0 5 0 2 68 222 
3 0 0 0 3 0 2 72 71 
8 0 0 0 7 0 1 70 
9 0 0 0 7 0 1 71 
2 0 0 0 4 0 1 73 
3 0 0 0 3 0 1 73 
7 0 0 0 7 0 1 74 
0 0 0 0 0 0 1 123 
0 0 0 0 0 0 1 76 
1 0 1 0 0 0 1 77 
2 0 8 0 0 0 3 80 78 296 
1 0 6 0 0 0 1 79 
10 0 6 0 0 0 1 81 
10 0 6 0 0 0 1 81 
6 0 6 0 0 0 2 83 82 
10 0 4 0 0 0 2 85 84 
1 0 3 0 0 0 1 84 
8 0 6 0 0 0 1 86 
10 0 4 0 0 0 1 86 
0 0 0 0 0 0 1 123 
0 0 0 0 0 0 3 88 93 97 
10 0 0 1 0 0 2 95 89 
6 0 0 8 0 0 1 90 
1 0 0 3 0 0 1 91 
10 0 0 8 0 0 2 92 180 
5 0 0 5 0 0 1 94 
4 0 0 7 0 0 1 94 
3 0 0 7 0 0 1 96 
10 0 0 3 0 0 1 96 
2 0 0 6 0 0 1 98 
7 0 0 2 0 0 1 98 
0 0 0 0 0 0 1 123 
0 0 0 0 0 0 2 100 102 
10 1 0 0 0 0 1 101 
4 7 0 0 0 0 2 106 103 
5 6 0 0 0 0 2 106 104 
3 6 0 0 0 0 1 104 
3 4 0 0 0 0 1 105 
1 4 0 0 0 0 1 107 
10 4 0 0 0 0 1 107 
10 5 0 0 0 0 2 109 108 
6 5 0 0 0 0 2 110 381 
9 8 0 0 0 0 1 110 
0 0 0 0 0 0 1 123 
0 0 0 0 0 0 2 112 113 
10 0 0 0 0 1 3 115 114 389 
1 0 0 0 0 6 2 120 115 
1 0 0 0 0 5 2 120 116 
2 0 0 0 0 7 1 116 
10 0 0 0 0 6 1 117 
7 0 0 0 0 4 1 118 
2 0 0 0 0 3 1 119 
1 0 0 0 0 7 1 121 
7 0 0 0 0 5 1 121 
6 0 0 0 0 6 1 122 
0 0 0 0 0 0 1 123 
0 0 0 0 0 0 5 124 156 188 220 232 
0 0 0 0 0 0 1 125 
8 1 0 0 1 2 2 128 126 
9 6 0 0 2 4 1 127 
3 5 0 0 6 7 2 130 129 
2 4 0 0 6 7 1 129 
2 7 0 0 2 4 1 131 
3 5 0 0 4 3 1 131 
6 3 0 0 7 3 2 135 132 
3 4 0 0 3 3 1 133 
4 6 0 0 7 10 2 137 134 
5 3 0 0 6 7 2 141 136 
5 6 0 0 7 6 2 137 136 
7 6 0 0 5 8 1 138 
5 4 0 0 6 6 1 138 
10 6 0 0 2 3 2 144 139 
8 5 0 0 6 7 1 140 
10 3 0 0 9 6 2 145 142 
5 4 0 0 6 2 2 145 143 
2 8 0 0 4 8 1 143 
5 7 0 0 3 4 2 149 146 
9 2 0 0 6 3 3 149 146 382 
3 4 0 0 5 4 2 149 147 
7 3 0 0 3 7 1 147 
1 5 0 0 8 3 1 148 
3 7 0 0 4 2 1 150 
1 6 0 0 7 3 1 150 
2 8 0 0 6 2 1 151 
1 8 0 0 5 4 1 152 
6 6 0 0 4 9 1 153 
10 5 0 0 4 6 1 154 
1 3 0 0 6 7 1 155 
0 0 0 0 0 0 1 424 
0 0 0 0 0 0 8 157 180 181 182 183 184 185 186 
3 1 2 1 0 0 1 158 
1 6 3 7 0 0 1 159 
7 3 3 5 0 0 1 160 
7 6 5 3 0 0 2 179 161 
5 10 4 8 0 0 1 162 
2 6 7 4 0 0 1 163 
2 2 4 2 0 0 1 164 
9 3 4 4 0 0 1 165 
9 6 7 2 0 0 1 166 
2 5 2 8 0 0 1 167 
8 5 4 6 0 0 1 168 
10 7 5 3 0 0 1 169 
7 4 4 7 0 0 1 170 
4 1 5 5 0 0 1 171 
10 4 5 4 0 0 1 172 
1 7 3 4 0 0 1 173 
8 2 8 8 0 0 1 174 
7 4 4 5 0 0 1 175 
1 5 2 6 0 0 2 176 320 
9 4 8 6 0 0 1 177 
6 3 6 5 0 0 1 178 
4 2 5 3 0 0 1 187 
5 8 10 3 0 0 1 187 
3 8 9 4 0 0 1 187 
4 6 6 6 0 0 1 187 
5 7 3 7 0 0 1 187 
4 6 7 9 0 0 1 187 
6 10 3 4 0 0 1 187 
3 5 3 8 0 0 1 187 
4 4 9 3 0 0 1 187 
0 0 0 0 0 0 1 424 
0 0 0 0 0 0 2 189 218 
10 1 0 1 1 0 1 190 
6 3 0 7 9 0 2 217 191 
3 3 0 5 9 0 3 216 215 192 
4 10 0 7 8 0 1 193 
2 6 0 5 7 0 2 214 194 
1 7 0 5 7 0 3 213 212 195 
3 5 0 7 5 0 1 196 
8 9 0 5 2 0 1 197 
3 1 0 5 3 0 1 198 
7 8 0 7 5 0 1 199 
5 8 0 3 4 0 1 200 
6 4 0 5 8 0 2 211 201 
10 7 0 1 2 0 1 202 
2 4 0 5 5 0 1 203 
2 4 0 6 6 0 1 204 
2 7 0 4 2 0 1 205 
1 3 0 4 9 0 1 206 
5 6 0 6 3 0 1 207 
6 3 0 5 4 0 1 208 
4 4 0 7 2 0 1 209 
4 2 0 5 4 0 1 210 
1 7 0 6 6 0 1 219 
8 4 0 5 4 0 1 219 
4 2 0 8 7 0 1 219 
5 4 0 4 2 0 1 219 
3 6 0 4 6 0 1 219 
4 5 0 4 4 0 1 219 
8 6 0 6 8 0 1 219 
2 5 0 4 5 0 1 219 
9 6 0 4 3 0 1 219 
0 0 0 0 0 0 1 424 
0 0 0 0 0 0 2 221 224 
7 0 0 0 0 1 2 230 222 
6 0 0 0 0 2 1 223 
10 0 0 0 0 4 2 227 225 
10 0 0 0 0 10 2 230 225 
3 0 0 0 0 10 1 226 
9 0 0 0 0 3 1 228 
4 0 0 0 0 8 1 228 
10 0 0 0 0 1 1 229 
4 0 0 0 0 5 1 231 
2 0 0 0 0 6 1 231 
0 0 0 0 0 0 5 264 286 308 330 342 
0 0 0 0 0 0 8 233 256 257 258 259 260 261 262 
2 1 3 1 0 0 2 255 234 
3 5 3 3 0 0 1 235 
8 3 5 2 0 0 1 236 
5 5 10 6 0 0 1 237 
5 6 5 3 0 0 1 238 
1 5 7 5 0 0 1 239 
2 4 6 4 0 0 1 240 
6 3 4 6 0 0 1 241 
3 6 7 3 0 0 1 242 
7 4 4 5 0 0 1 243 
5 3 4 6 0 0 1 244 
5 4 4 7 0 0 1 245 
10 4 5 5 0 0 1 246 
4 5 2 8 0 0 1 247 
2 3 4 6 0 0 1 248 
5 5 5 6 0 0 1 249 
7 4 7 7 0 0 1 250 
9 8 6 4 0 0 1 251 
7 8 5 4 0 0 1 252 
1 4 7 5 0 0 1 253 
3 2 8 6 0 0 1 254 
5 8 4 7 0 0 1 263 
2 8 3 4 0 0 1 263 
1 7 9 7 0 0 1 263 
9 6 3 4 0 0 1 263 
10 9 4 2 0 0 1 263 
8 5 4 6 0 0 1 263 
10 6 1 6 0 0 1 263 
3 6 6 6 0 0 1 263 
2 3 5 6 0 0 1 263 
0 0 0 0 0 0 1 424 
0 0 0 0 0 0 1 265 
9 0 0 1 1 0 2 274 266 
7 0 0 4 1 0 1 267 
9 0 0 6 5 0 2 276 268 
2 0 0 4 8 0 1 269 
3 0 0 4 5 0 2 277 270 
4 0 0 7 5 0 1 271 
7 0 0 5 5 0 1 272 
6 0 0 6 2 0 2 284 273 
7 0 0 4 5 0 1 275 
1 0 0 7 4 0 1 275 
8 0 0 8 5 0 2 282 278 
4 0 0 6 8 0 1 277 
10 0 0 6 4 0 2 284 280 
8 0 0 2 9 0 1 279 
7 0 0 4 5 0 1 280 
10 0 0 7 5 0 1 281 
4 0 0 5 3 0 1 283 
5 0 0 6 5 0 1 283 
1 0 0 3 10 0 1 285 
10 0 0 5 5 0 1 285 
0 0 0 0 0 0 1 424 
0 0 0 0 0 0 3 287 295 298 
4 1 1 0 0 0 1 288 
5 6 3 0 0 0 1 289 
10 4 6 0 0 0 1 290 
6 2 2 0 0 0 1 291 
8 7 6 0 0 0 2 303 292 
6 5 3 0 0 0 1 293 
1 8 4 0 0 0 1 294 
6 6 7 0 0 0 2 305 296 
2 9 5 0 0 0 2 306 299 
3 4 7 0 0 0 1 297 
6 7 4 0 0 0 1 299 
3 5 4 0 0 0 1 299 
6 4 5 0 0 0 1 300 
6 2 6 0 0 0 1 301 
1 7 4 0 0 0 1 302 
4 4 4 0 0 0 1 304 
3 6 9 0 0 0 1 304 
7 5 8 0 0 0 1 307 
9 4 3 0 0 0 1 307 
2 4 9 0 0 0 1 307 
0 0 0 0 0 0 1 424 
0 0 0 0 0 0 3 309 318 322 
2 0 2 1 0 0 3 328 327 310 
3 0 3 4 0 0 1 311 
10 0 4 4 0 0 1 312 
5 0 5 6 0 0 1 313 
2 0 4 6 0 0 1 314 
5 0 6 6 0 0 1 315 
7 0 5 5 0 0 2 326 316 
8 0 7 9 0 0 1 317 
5 0 6 7 0 0 1 319 
1 0 3 1 0 0 1 319 
10 0 3 4 0 0 1 320 
8 0 7 3 0 0 1 321 
9 0 10 9 0 0 1 323 
4 0 4 8 0 0 2 327 325 
6 0 4 4 0 0 1 324 
4 0 6 6 0 0 1 325 
10 0 7 5 0 0 1 329 
3 0 5 5 0 0 1 329 
4 0 5 3 0 0 1 329 
8 0 4 4 0 0 1 329 
0 0 0 0 0 0 1 424 
0 0 0 0 0 0 2 331 333 
7 0 0 1 0 0 1 332 
10 0 0 7 0 0 1 334 
10 0 0 3 0 0 1 334 
8 0 0 5 0 0 2 336 335 
5 0 0 5 0 0 2 339 337 
8 0 0 5 0 0 2 339 337 
6 0 0 9 0 0 1 338 
3 0 0 2 0 0 1 340 
7 0 0 4 0 0 1 340 
6 0 0 9 0 0 1 341 
0 0 0 0 0 0 5 364 376 388 400 412 
0 0 0 0 0 0 1 343 
10 1 0 0 1 0 2 347 344 
3 8 0 0 5 0 1 345 
5 5 0 0 6 0 1 346 
9 4 0 0 8 0 2 351 348 
4 3 0 0 7 0 2 351 348 
1 5 0 0 4 0 1 349 
9 6 0 0 5 0 1 350 
1 6 0 0 6 0 1 352 
1 4 0 0 5 0 1 352 
6 4 0 0 6 0 2 357 353 
9 4 0 0 6 0 2 356 354 
10 6 0 0 4 0 1 355 
7 5 0 0 8 0 2 360 358 
5 7 0 0 7 0 2 360 358 
3 4 0 0 5 0 1 358 
3 4 0 0 3 0 1 359 
5 6 0 0 4 0 1 361 
9 6 0 0 1 0 1 361 
9 6 0 0 4 0 1 362 
2 6 0 0 5 0 1 363 
0 0 0 0 0 0 1 424 
0 0 0 0 0 0 2 365 367 
7 1 0 0 0 0 1 366 
5 4 0 0 0 0 2 374 369 
7 7 0 0 0 0 1 368 
10 3 0 0 0 0 2 374 371 
10 6 0 0 0 0 1 370 
7 7 0 0 0 0 1 371 
4 3 0 0 0 0 1 372 
2 7 0 0 0 0 1 373 
5 8 0 0 0 0 1 375 
9 4 0 0 0 0 1 375 
0 0 0 0 0 0 1 424 
0 0 0 0 0 0 3 377 379 384 
3 0 1 0 0 0 2 386 378 
5 0 5 0 0 0 1 380 
7 0 4 0 0 0 1 380 
3 0 6 0 0 0 1 381 
4 0 4 0 0 0 1 382 
1 0 7 0 0 0 1 383 
9 0 6 0 0 0 1 385 
4 0 8 0 0 0 1 385 
4 0 2 0 0 0 1 387 
9 0 7 0 0 0 1 387 
0 0 0 0 0 0 1 424 
0 0 0 0 0 0 1 389 
5 0 1 0 0 0 1 390 
3 0 6 0 0 0 2 394 391 
1 0 4 0 0 0 1 392 
4 0 5 0 0 0 2 398 393 
8 0 7 0 0 0 2 396 395 
10 0 5 0 0 0 2 398 396 
2 0 7 0 0 0 1 397 
4 0 6 0 0 0 1 399 
6 0 6 0 0 0 1 399 
10 0 3 0 0 0 1 399 
0 0 0 0 0 0 1 424 
0 0 0 0 0 0 3 401 406 408 
3 1 0 0 0 0 1 402 
4 1 0 0 0 0 1 403 
8 10 0 0 0 0 1 404 
7 5 0 0 0 0 1 405 
4 5 0 0 0 0 2 410 407 
3 6 0 0 0 0 1 407 
10 7 0 0 0 0 1 409 
6 4 0 0 0 0 1 409 
10 5 0 0 0 0 1 411 
9 6 0 0 0 0 1 411 
0 0 0 0 0 0 1 424 
0 0 0 0 0 0 2 413 419 
1 0 0 0 1 0 1 414 
4 0 0 0 9 0 2 422 415 
9 0 0 0 7 0 2 421 416 
9 0 0 0 4 0 1 417 
7 0 0 0 6 0 1 418 
8 0 0 0 4 0 1 420 
1 0 0 0 5 0 1 420 
8 0 0 0 4 0 1 423 
4 0 0 0 3 0 1 423 
4 0 0 0 7 0 1 423 
0 0 0 0 0 0 1 424 
0 0 0 0 0 0 0 
